data/instances/vrp_files/train_17.vrp
NAME : 17
COMMENT : Generated instance No. 17
TYPE : CVRP
DIMENSION : 21
EDGE_WEIGHT_TYPE : EUC_2D
CAPACITY : 30
NODE_COORD_SECTION
 1 944 474
 2 728 495
 3 688 434
 4 246 819
 5 799 694
 6 272 590
 7 360 91
 8 917 136
 9 950 446
 10 185 541
 11 872 732
 12 806 658
 13 692 849
 14 249 489
 15 221 987
 16 944 39
 17 705 925
 18 180 567
 19 915 33
 20 697 297
 21 924 971
DEMAND_SECTION
1 0
2 4
3 7
4 3
5 2
6 10
7 7
8 1
9 8
10 3
11 2
12 3
13 5
14 8
15 10
16 7
17 7
18 7
19 8
20 1
21 4
DEPOT_SECTION
 1
 -1
EOF